presolving:
(round 1, fast)       0 del vars, 62 del conss, 0 add conss, 0 chg bounds, 0 chg sides, 0 chg coeffs, 0 upgd conss, 0 impls, 16800 clqs
   (0.2s) running MILP presolver
   (0.2s) MILP presolver found nothing
(round 2, exhaustive) 0 del vars, 62 del conss, 0 add conss, 0 chg bounds, 0 chg sides, 0 chg coeffs, 16812 upgd conss, 0 impls, 16800 clqs
   (0.9s) probing: 51/16650 (0.3%) - 0 fixings, 0 aggregations, 0 implications, 0 bound changes
   (0.9s) probing aborted: 50/50 successive totally useless probings
   (0.9s) symmetry computation started: requiring (bin +, int -, cont +), (fixed: bin -, int +, cont -)
   (1.0s) no symmetry present
presolving (3 rounds: 3 fast, 2 medium, 2 exhaustive):
 0 deleted vars, 62 deleted constraints, 0 added constraints, 0 tightened bounds, 0 added holes, 0 changed sides, 12 changed coefficients
 0 implications, 16800 cliques
presolved problem has 16650 variables (16650 bin, 0 int, 0 impl, 0 cont) and 16812 constraints
     12 constraints of type <knapsack>
  16800 constraints of type <setppc>
transformed objective value is always integral (scale: 1)
Presolving Time: 0.96

 time | node  | left  |LP iter|LP it/n|mem/heur|mdpt |vars |cons |rows |cuts |sepa|confs|strbr|  dualbound   | primalbound  |  gap   | compl. 
p 1.2s|     1 |     0 |     0 |     - |  clique|   0 |  16k|  16k|  16k|   0 |  0 |   0 |   0 | 0.000000e+00 | 2.840150e+05 |    Inf | unknown
p 1.7s|     1 |     0 |   224 |     - | vbounds|   0 |  16k|  16k|  16k|   0 |  0 |  20 |   0 | 0.000000e+00 | 2.740300e+05 |    Inf | unknown
  2.8s|     1 |     0 |  3385 |     - |   220M |   0 |  16k|  16k|  16k|   0 |  0 |  20 |   0 | 1.051682e+05 | 2.740300e+05 | 160.56%| unknown
r 2.9s|     1 |     0 |  3385 |     - |rounding|   0 |  16k|  16k|  16k|   0 |  0 |  20 |   0 | 1.051682e+05 | 1.446690e+05 |  37.56%| unknown
i 2.9s|     1 |     0 |  3385 |     - |  oneopt|   0 |  16k|  16k|  16k|   0 |  0 |  20 |   0 | 1.051682e+05 | 1.378960e+05 |  31.12%| unknown
  7.5s|     1 |     0 |  3451 |     - |   234M |   0 |  16k|  16k|  16k|   2 |  1 |  20 |   0 | 1.051857e+05 | 1.378960e+05 |  31.10%| unknown
 14.3s|     1 |     0 |  3469 |     - |   242M |   0 |  16k|  16k|  16k|   3 |  2 |  20 |   0 | 1.051883e+05 | 1.378960e+05 |  31.09%| unknown
 21.5s|     1 |     0 |  3666 |     - |   250M |   0 |  16k|  16k|  16k|   6 |  3 |  20 |   0 | 1.052356e+05 | 1.378960e+05 |  31.04%| unknown
 22.8s|     1 |     0 |  3731 |     - |   252M |   0 |  16k|  16k|  16k|   8 |  4 |  20 |   0 | 1.052427e+05 | 1.378960e+05 |  31.03%| unknown
 24.2s|     1 |     0 |  3843 |     - |   254M |   0 |  16k|  16k|  16k|  10 |  5 |  20 |   0 | 1.052705e+05 | 1.378960e+05 |  30.99%| unknown
 25.6s|     1 |     0 |  3872 |     - |   256M |   0 |  16k|  16k|  16k|  11 |  6 |  20 |   0 | 1.052772e+05 | 1.378960e+05 |  30.98%| unknown
 27.1s|     1 |     0 |  4005 |     - |   258M |   0 |  16k|  16k|  16k|  13 |  7 |  20 |   0 | 1.052940e+05 | 1.378960e+05 |  30.96%| unknown
 33.4s|     1 |     0 |  4146 |     - |   260M |   0 |  16k|  16k|  16k|  16 |  8 |  20 |   0 | 1.053108e+05 | 1.378960e+05 |  30.94%| unknown
 34.9s|     1 |     0 |  4159 |     - |   262M |   0 |  16k|  16k|  16k|  17 |  9 |  20 |   0 | 1.053148e+05 | 1.378960e+05 |  30.94%| unknown
 36.3s|     1 |     0 |  4182 |     - |   263M |   0 |  16k|  16k|  16k|  18 | 10 |  20 |   0 | 1.053164e+05 | 1.378960e+05 |  30.93%| unknown
 time | node  | left  |LP iter|LP it/n|mem/heur|mdpt |vars |cons |rows |cuts |sepa|confs|strbr|  dualbound   | primalbound  |  gap   | compl. 
 36.8s|     1 |     0 |  4229 |     - |   265M |   0 |  16k|  16k|  16k|  19 | 11 |  20 |   0 | 1.053204e+05 | 1.378960e+05 |  30.93%| unknown
 37.2s|     1 |     0 |  4346 |     - |   267M |   0 |  16k|  16k|  16k|  21 | 12 |  20 |   0 | 1.053315e+05 | 1.378960e+05 |  30.92%| unknown
 37.6s|     1 |     0 |  4348 |     - |   269M |   0 |  16k|  16k|  16k|  22 | 13 |  20 |   0 | 1.053321e+05 | 1.378960e+05 |  30.92%| unknown
 38.0s|     1 |     0 |  4360 |     - |   270M |   0 |  16k|  16k|  16k|  23 | 14 |  20 |   0 | 1.053339e+05 | 1.378960e+05 |  30.91%| unknown
 38.4s|     1 |     0 |  4430 |     - |   272M |   0 |  16k|  16k|  16k|  25 | 15 |  20 |   0 | 1.053376e+05 | 1.378960e+05 |  30.91%| unknown
 38.8s|     1 |     0 |  4462 |     - |   274M |   0 |  16k|  16k|  16k|  26 | 16 |  20 |   0 | 1.053411e+05 | 1.378960e+05 |  30.90%| unknown
 39.3s|     1 |     0 |  4588 |     - |   276M |   0 |  16k|  16k|  16k|  28 | 17 |  20 |   0 | 1.053584e+05 | 1.378960e+05 |  30.88%| unknown
 39.7s|     1 |     0 |  4623 |     - |   278M |   0 |  16k|  16k|  16k|  29 | 18 |  20 |   0 | 1.053619e+05 | 1.378960e+05 |  30.88%| unknown
 40.2s|     1 |     0 |  4699 |     - |   279M |   0 |  16k|  16k|  16k|  33 | 20 |  20 |   0 | 1.053683e+05 | 1.378960e+05 |  30.87%| unknown
 40.7s|     1 |     0 |  4794 |     - |   281M |   0 |  16k|  16k|  16k|  35 | 21 |  20 |   0 | 1.053799e+05 | 1.378960e+05 |  30.86%| unknown
d43.7s|     1 |     0 |  8549 |     - |farkasdi|   0 |  16k|  16k|  16k|   0 | 23 |  20 |   0 | 1.053799e+05 | 1.100390e+05 |   4.42%| unknown
L50.0s|     1 |     0 | 15736 |     - |    rens|   0 |  16k|  16k|  16k|  35 | 23 |  40 |   0 | 1.053799e+05 | 1.074020e+05 |   1.92%| unknown
 50.7s|     1 |     0 | 15736 |     - |   283M |   0 |  16k|  16k|  16k|  35 | 23 |  40 |   0 | 1.053799e+05 | 1.074020e+05 |   1.92%| unknown
 50.8s|     1 |     0 | 15736 |     - |   284M |   0 |  16k|  16k|  10k|  35 | 23 |  40 |   0 | 1.053799e+05 | 1.074020e+05 |   1.92%| unknown
 51.2s|     1 |     0 | 15736 |     - |   284M |   0 |  16k|  10k|  10k|  35 | 24 |  40 |   0 | 1.053799e+05 | 1.074020e+05 |   1.92%| unknown
(run 1, node 1) restarting after 6438 global fixings of integer variables

(restart) converted 35 cuts from the global cut pool into linear constraints

presolving:
(round 1, fast)       6438 del vars, 0 del conss, 0 add conss, 0 chg bounds, 0 chg sides, 1555 chg coeffs, 0 upgd conss, 0 impls, 10369 clqs
   (51.5s) running MILP presolver
   (51.5s) MILP presolver found nothing
(round 2, medium)     6438 del vars, 816 del conss, 809 add conss, 0 chg bounds, 0 chg sides, 1555 chg coeffs, 0 upgd conss, 0 impls, 10369 clqs
(round 3, exhaustive) 6438 del vars, 816 del conss, 809 add conss, 0 chg bounds, 0 chg sides, 1555 chg coeffs, 35 upgd conss, 0 impls, 10369 clqs
presolving (4 rounds: 4 fast, 3 medium, 2 exhaustive):
 6438 deleted vars, 816 deleted constraints, 809 added constraints, 0 tightened bounds, 0 added holes, 0 changed sides, 1555 changed coefficients
 0 implications, 10369 cliques
presolved problem has 10212 variables (10212 bin, 0 int, 0 impl, 0 cont) and 10434 constraints
     39 constraints of type <knapsack>
  10369 constraints of type <setppc>
     26 constraints of type <logicor>
transformed objective value is always integral (scale: 1)
Presolving Time: 1.40
transformed 5/7 original solutions to the transformed problem space

 time | node  | left  |LP iter|LP it/n|mem/heur|mdpt |vars |cons |rows |cuts |sepa|confs|strbr|  dualbound   | primalbound  |  gap   | compl. 
 55.6s|     1 |     0 | 24497 |     - |   278M |   0 |  10k|  10k|  10k|   0 |  0 |  40 |   0 | 1.053799e+05 | 1.074020e+05 |   1.92%| unknown
 55.7s|     1 |     0 | 24497 |     - |   278M |   0 |  10k|  10k|  10k|   0 |  0 |  40 |   0 | 1.053799e+05 | 1.074020e+05 |   1.92%| unknown
 56.9s|     1 |     0 | 24549 |     - |   280M |   0 |  10k|  10k|  10k|   1 |  1 |  40 |   0 | 1.053851e+05 | 1.074020e+05 |   1.91%| unknown
 57.1s|     1 |     0 | 24549 |     - |   280M |   0 |  10k|  10k|  10k|   1 |  1 |  40 |   0 | 1.053851e+05 | 1.074020e+05 |   1.91%| unknown
 58.1s|     1 |     0 | 24698 |     - |   282M |   0 |  10k|  10k|  10k|   2 |  2 |  40 |   0 | 1.054038e+05 | 1.074020e+05 |   1.90%| unknown
 58.2s|     1 |     0 | 24698 |     - |   282M |   0 |  10k|  10k|  10k|   2 |  2 |  40 |   0 | 1.054038e+05 | 1.074020e+05 |   1.90%| unknown
 59.2s|     1 |     0 | 24789 |     - |   283M |   0 |  10k|  10k|  10k|   4 |  3 |  40 |   0 | 1.054117e+05 | 1.074020e+05 |   1.89%| unknown
 59.3s|     1 |     0 | 24789 |     - |   283M |   0 |  10k|  10k|  10k|   4 |  3 |  40 |   0 | 1.054117e+05 | 1.074020e+05 |   1.89%| unknown
 63.8s|     1 |     0 | 25037 |     - |   288M |   0 |  10k|  10k|  10k|   7 |  4 |  40 |   0 | 1.054461e+05 | 1.074020e+05 |   1.85%| unknown
 64.1s|     1 |     0 | 25037 |     - |   288M |   0 |  10k|  10k|  10k|   7 |  4 |  40 |   0 | 1.054461e+05 | 1.074020e+05 |   1.85%| unknown
 68.0s|     1 |     0 | 25234 |     - |   293M |   0 |  10k|  10k|  10k|  12 |  5 |  40 |   0 | 1.054675e+05 | 1.074020e+05 |   1.83%| unknown
 68.1s|     1 |     0 | 25234 |     - |   293M |   0 |  10k|  10k|  10k|  12 |  5 |  40 |   0 | 1.054675e+05 | 1.074020e+05 |   1.83%| unknown
 69.5s|     1 |     0 | 25295 |     - |   294M |   0 |  10k|  10k|  10k|  18 |  6 |  40 |   0 | 1.054702e+05 | 1.074020e+05 |   1.83%| unknown
 69.6s|     1 |     0 | 25295 |     - |   294M |   0 |  10k|  10k|  10k|  18 |  6 |  40 |   0 | 1.054702e+05 | 1.074020e+05 |   1.83%| unknown
 70.7s|     1 |     0 | 25301 |     - |   295M |   0 |  10k|  10k|  10k|  19 |  7 |  40 |   0 | 1.054706e+05 | 1.074020e+05 |   1.83%| unknown
 time | node  | left  |LP iter|LP it/n|mem/heur|mdpt |vars |cons |rows |cuts |sepa|confs|strbr|  dualbound   | primalbound  |  gap   | compl. 
 70.9s|     1 |     0 | 25301 |     - |   295M |   0 |  10k|  10k|  10k|  19 |  7 |  40 |   0 | 1.054706e+05 | 1.074020e+05 |   1.83%| unknown
 72.0s|     1 |     0 | 25363 |     - |   295M |   0 |  10k|  10k|  10k|  21 |  8 |  40 |   0 | 1.054746e+05 | 1.074020e+05 |   1.83%| unknown
 72.1s|     1 |     0 | 25363 |     - |   295M |   0 |  10k|  10k|  10k|  21 |  8 |  40 |   0 | 1.054746e+05 | 1.074020e+05 |   1.83%| unknown
 73.3s|     1 |     0 | 25424 |     - |   296M |   0 |  10k|  10k|  10k|  23 |  9 |  40 |   0 | 1.054784e+05 | 1.074020e+05 |   1.82%| unknown
 73.4s|     1 |     0 | 25424 |     - |   296M |   0 |  10k|  10k|  10k|  23 |  9 |  40 |   0 | 1.054784e+05 | 1.074020e+05 |   1.82%| unknown
 74.6s|     1 |     0 | 25449 |     - |   297M |   0 |  10k|  10k|  10k|  24 | 10 |  40 |   0 | 1.054793e+05 | 1.074020e+05 |   1.82%| unknown
 74.7s|     1 |     0 | 25449 |     - |   297M |   0 |  10k|  10k|  10k|  24 | 10 |  40 |   0 | 1.054793e+05 | 1.074020e+05 |   1.82%| unknown
 75.1s|     1 |     0 | 25502 |     - |   298M |   0 |  10k|  10k|  10k|  25 | 11 |  40 |   0 | 1.054845e+05 | 1.074020e+05 |   1.82%| unknown
 75.2s|     1 |     0 | 25502 |     - |   298M |   0 |  10k|  10k|  10k|  25 | 11 |  40 |   0 | 1.054845e+05 | 1.074020e+05 |   1.82%| unknown
 75.5s|     1 |     0 | 25562 |     - |   299M |   0 |  10k|  10k|  10k|  26 | 12 |  40 |   0 | 1.054875e+05 | 1.074020e+05 |   1.81%| unknown
 75.6s|     1 |     0 | 25562 |     - |   299M |   0 |  10k|  10k|  10k|  26 | 12 |  40 |   0 | 1.054875e+05 | 1.074020e+05 |   1.81%| unknown
 76.1s|     1 |     0 | 25701 |     - |   300M |   0 |  10k|  10k|  10k|  29 | 13 |  40 |   0 | 1.054954e+05 | 1.074020e+05 |   1.81%| unknown
 76.3s|     1 |     0 | 25701 |     - |   301M |   0 |  10k|  10k|  10k|  29 | 13 |  40 |   0 | 1.054954e+05 | 1.074020e+05 |   1.81%| unknown
 76.6s|     1 |     0 | 25720 |     - |   301M |   0 |  10k|  10k|  10k|  30 | 14 |  40 |   0 | 1.054971e+05 | 1.074020e+05 |   1.81%| unknown
 76.7s|     1 |     0 | 25720 |     - |   302M |   0 |  10k|  10k|  10k|  30 | 14 |  40 |   0 | 1.054971e+05 | 1.074020e+05 |   1.81%| unknown
 time | node  | left  |LP iter|LP it/n|mem/heur|mdpt |vars |cons |rows |cuts |sepa|confs|strbr|  dualbound   | primalbound  |  gap   | compl. 
 77.0s|     1 |     0 | 25751 |     - |   303M |   0 |  10k|  10k|  10k|  31 | 15 |  40 |   0 | 1.054979e+05 | 1.074020e+05 |   1.80%| unknown
 77.1s|     1 |     0 | 25751 |     - |   303M |   0 |  10k|  10k|  10k|  31 | 15 |  40 |   0 | 1.054979e+05 | 1.074020e+05 |   1.80%| unknown
d78.6s|     1 |     0 | 28587 |     - |farkasdi|   0 |  10k|  10k|  10k|   0 | 15 |  49 |   0 | 1.054979e+05 | 1.071310e+05 |   1.55%| unknown
 84.3s|     1 |     0 | 35407 |     - |   303M |   0 |  10k|  10k|  10k|  31 | 15 |  66 |   0 | 1.054979e+05 | 1.071310e+05 |   1.55%| unknown
 84.5s|     1 |     0 | 35407 |     - |   303M |   0 |  10k|  10k|8833 |  31 | 15 |  66 |   0 | 1.054979e+05 | 1.071310e+05 |   1.55%| unknown
 84.9s|     1 |     0 | 35459 |     - |   304M |   0 |  10k|8857 |8834 |  32 | 16 |  66 |   0 | 1.055039e+05 | 1.071310e+05 |   1.54%| unknown
 85.0s|     1 |     0 | 35459 |     - |   304M |   0 |  10k|8857 |8813 |  32 | 16 |  66 |   0 | 1.055039e+05 | 1.071310e+05 |   1.54%| unknown
(run 2, node 1) restarting after 1653 global fixings of integer variables

(restart) converted 32 cuts from the global cut pool into linear constraints

presolving:
(round 1, fast)       1653 del vars, 0 del conss, 0 add conss, 0 chg bounds, 0 chg sides, 283 chg coeffs, 0 upgd conss, 0 impls, 8718 clqs
   (85.2s) running MILP presolver
   (85.2s) MILP presolver found nothing
(round 2, medium)     1653 del vars, 460 del conss, 457 add conss, 0 chg bounds, 0 chg sides, 283 chg coeffs, 0 upgd conss, 0 impls, 8718 clqs
(round 3, exhaustive) 1653 del vars, 460 del conss, 457 add conss, 0 chg bounds, 0 chg sides, 283 chg coeffs, 32 upgd conss, 0 impls, 8718 clqs
(round 4, exhaustive) 1653 del vars, 478 del conss, 457 add conss, 0 chg bounds, 0 chg sides, 284 chg coeffs, 32 upgd conss, 0 impls, 8718 clqs
presolving (5 rounds: 5 fast, 4 medium, 3 exhaustive):
 1653 deleted vars, 478 deleted constraints, 457 added constraints, 0 tightened bounds, 0 added holes, 0 changed sides, 284 changed coefficients
 0 implications, 8718 cliques
presolved problem has 8559 variables (8559 bin, 0 int, 0 impl, 0 cont) and 8820 constraints
     68 constraints of type <knapsack>
   8718 constraints of type <setppc>
     34 constraints of type <logicor>
transformed objective value is always integral (scale: 1)
Presolving Time: 1.88
transformed 7/9 original solutions to the transformed problem space

 time | node  | left  |LP iter|LP it/n|mem/heur|mdpt |vars |cons |rows |cuts |sepa|confs|strbr|  dualbound   | primalbound  |  gap   | compl. 
 90.3s|     1 |     0 | 45771 |     - |   308M |   0 |8559 |8820 |8786 |   0 |  0 |  66 |   0 | 1.055039e+05 | 1.071310e+05 |   1.54%| unknown
 90.8s|     1 |     0 | 45771 |     - |   308M |   0 |8559 |8820 |8589 |   0 |  0 |  66 |   0 | 1.055039e+05 | 1.071310e+05 |   1.54%| unknown
 92.0s|     1 |     0 | 45827 |     - |   310M |   0 |8559 |8623 |8590 |   1 |  1 |  66 |   0 | 1.055051e+05 | 1.071310e+05 |   1.54%| unknown
 92.1s|     1 |     0 | 45827 |     - |   310M |   0 |8559 |8623 |8585 |   1 |  1 |  66 |   0 | 1.055051e+05 | 1.071310e+05 |   1.54%| unknown
 93.2s|     1 |     0 | 45890 |     - |   311M |   0 |8559 |8618 |8586 |   2 |  2 |  66 |   0 | 1.055066e+05 | 1.071310e+05 |   1.54%| unknown
 93.3s|     1 |     0 | 45890 |     - |   311M |   0 |8559 |8618 |8583 |   2 |  2 |  66 |   0 | 1.055066e+05 | 1.071310e+05 |   1.54%| unknown
 94.3s|     1 |     0 | 45922 |     - |   312M |   0 |8559 |8615 |8584 |   3 |  3 |  66 |   0 | 1.055080e+05 | 1.071310e+05 |   1.54%| unknown
 94.5s|     1 |     0 | 45922 |     - |   312M |   0 |8559 |8615 |8579 |   3 |  3 |  66 |   0 | 1.055080e+05 | 1.071310e+05 |   1.54%| unknown
 95.8s|     1 |     0 | 46027 |     - |   313M |   0 |8559 |8610 |8580 |   4 |  4 |  66 |   0 | 1.055119e+05 | 1.071310e+05 |   1.53%| unknown
 95.9s|     1 |     0 | 46027 |     - |   313M |   0 |8559 |8610 |8564 |   4 |  4 |  66 |   0 | 1.055119e+05 | 1.071310e+05 |   1.53%| unknown
L 101s|     1 |     0 | 50576 |     - |    rens|   0 |8559 |8562 |8564 |   4 |  6 |  77 |   0 | 1.055119e+05 | 1.064590e+05 |   0.90%| unknown
  101s|     1 |     0 | 50576 |     - |   314M |   0 |8559 |8562 |8564 |   4 |  6 |  77 |   0 | 1.055119e+05 | 1.064590e+05 |   0.90%| unknown
  101s|     1 |     0 | 50576 |     - |   315M |   0 |8559 |8562 |5602 |   4 |  6 |  77 |   0 | 1.055119e+05 | 1.064590e+05 |   0.90%| unknown
  102s|     1 |     0 | 50632 |     - |   315M |   0 |8559 |5600 |5603 |   5 |  7 |  77 |   0 | 1.055137e+05 | 1.064590e+05 |   0.90%| unknown
  102s|     1 |     0 | 50632 |     - |   315M |   0 |8559 |5600 |5588 |   5 |  7 |  77 |   0 | 1.055137e+05 | 1.064590e+05 |   0.90%| unknown
(run 3, node 1) restarting after 3309 global fixings of integer variables

(restart) converted 5 cuts from the global cut pool into linear constraints

presolving:
(round 1, fast)       3309 del vars, 0 del conss, 0 add conss, 0 chg bounds, 0 chg sides, 101 chg coeffs, 0 upgd conss, 0 impls, 5414 clqs
   (102.0s) running MILP presolver
   (102.0s) MILP presolver found nothing
(round 2, medium)     3309 del vars, 115 del conss, 114 add conss, 0 chg bounds, 0 chg sides, 101 chg coeffs, 0 upgd conss, 0 impls, 5414 clqs
(round 3, exhaustive) 3309 del vars, 115 del conss, 114 add conss, 0 chg bounds, 0 chg sides, 101 chg coeffs, 5 upgd conss, 0 impls, 5414 clqs
presolving (4 rounds: 4 fast, 3 medium, 2 exhaustive):
 3309 deleted vars, 115 deleted constraints, 114 added constraints, 0 tightened bounds, 0 added holes, 0 changed sides, 101 changed coefficients
 0 implications, 5414 cliques
presolved problem has 5250 variables (5250 bin, 0 int, 0 impl, 0 cont) and 5531 constraints
     72 constraints of type <knapsack>
   5414 constraints of type <setppc>
     45 constraints of type <logicor>
transformed objective value is always integral (scale: 1)
Presolving Time: 2.32
transformed 8/10 original solutions to the transformed problem space

 time | node  | left  |LP iter|LP it/n|mem/heur|mdpt |vars |cons |rows |cuts |sepa|confs|strbr|  dualbound   | primalbound  |  gap   | compl. 
  106s|     1 |     0 | 60652 |     - |   318M |   0 |5250 |5531 |5486 |   0 |  0 |  77 |   0 | 1.055137e+05 | 1.064590e+05 |   0.90%| unknown
  106s|     1 |     0 | 60652 |     - |   318M |   0 |5250 |5531 |5447 |   0 |  0 |  77 |   0 | 1.055137e+05 | 1.064590e+05 |   0.90%| unknown
  106s|     1 |     0 | 60686 |     - |   319M |   0 |5250 |5492 |5448 |   1 |  1 |  77 |   0 | 1.055144e+05 | 1.064590e+05 |   0.90%| unknown
  107s|     1 |     0 | 60686 |     - |   320M |   0 |5250 |5492 |5445 |   1 |  1 |  77 |   0 | 1.055144e+05 | 1.064590e+05 |   0.90%| unknown
  107s|     1 |     0 | 60730 |     - |   320M |   0 |5250 |5489 |5446 |   2 |  2 |  77 |   0 | 1.055150e+05 | 1.064590e+05 |   0.89%| unknown
  107s|     1 |     0 | 60730 |     - |   320M |   0 |5250 |5489 |5441 |   2 |  2 |  77 |   0 | 1.055150e+05 | 1.064590e+05 |   0.89%| unknown
  108s|     1 |     0 | 60748 |     - |   321M |   0 |5250 |5484 |5442 |   3 |  3 |  77 |   0 | 1.055153e+05 | 1.064590e+05 |   0.89%| unknown
  108s|     1 |     0 | 60748 |     - |   321M |   0 |5250 |5484 |5441 |   3 |  3 |  77 |   0 | 1.055153e+05 | 1.064590e+05 |   0.89%| unknown
  108s|     1 |     0 | 60796 |     - |   321M |   0 |5250 |5483 |5442 |   4 |  4 |  77 |   0 | 1.055163e+05 | 1.064590e+05 |   0.89%| unknown
  108s|     1 |     0 | 60796 |     - |   321M |   0 |5250 |5483 |5438 |   4 |  4 |  77 |   0 | 1.055163e+05 | 1.064590e+05 |   0.89%| unknown
  109s|     1 |     0 | 60811 |     - |   321M |   0 |5250 |5479 |5439 |   5 |  5 |  77 |   0 | 1.055167e+05 | 1.064590e+05 |   0.89%| unknown
  109s|     1 |     0 | 60811 |     - |   321M |   0 |5250 |5479 |5438 |   5 |  5 |  77 |   0 | 1.055167e+05 | 1.064590e+05 |   0.89%| unknown
  118s|     1 |     2 | 64272 |     - |   321M |   0 |5250 |5449 |5438 |   5 |  7 |  84 |  19 | 1.056773e+05 | 1.064590e+05 |   0.74%| unknown
* 119s|     3 |     0 | 66870 |6286.0 |strongbr|   1 |5250 |4592 |5412 |   5 |  2 |  95 |  24 | 1.057040e+05 | 1.059640e+05 |   0.25%|  46.06%

SCIP Status        : problem is solved [optimal solution found]
Solving Time (sec) : 119.42
Solving Nodes      : 3 (total of 6 nodes in 4 runs)
Primal Bound       : +1.05964000000000e+05 (12 solutions)
Dual Bound         : +1.05964000000000e+05
Gap                : 0.00 %
Solve Status: optimal
Solve Time: 119.44 seconds
Objective Value: 105964.00
